PSTRESS = 50				# External hydrostatic pressure in kbar
SYSTEM = La3Ni2O7                       # Title of the system
ISMEAR = 0                              # Gaussian smearing
SIGMA = 0.04                            # Width of the smearing in eV                     
IBRION = 2                              # Ionic relaxation (conjugate gradient algorithm)
POTIM = 0.25                            # Step width in ionic relaxations
ISIF = 3                                # Full-cell optimisation
NSW = 400                               # Maximum number of ionic steps.
NELM = 600                              # Maximum number of electronic self-consistency steps
NELMIN = 6                              # Minimum number of electronic self-consistency steps
ISPIN = 1                               # Non-Spin polarised DFT
ISYM = 0                                # VASP does not use symmetry
PREC = high                             # Better convergence absolute energies and stress tensor
EDIFF = 1E-08                           # SCF energy convergence, in eV
ENCUT = 600.0                           # energy cut-off for the plane-wave basis set in eV     
IVDW = 12                               # DFT-D3 method of Grimme with Becke-Johnson damping
NCORE = 4                               # number of compute cores that work on an individual orbital
LWAVE = .FALSE.                         # Do not write WAVECAR file (wavefunction data).
LCHARG = .FALSE.                        # Do not write CHGCAR file (charge density data).
