# System and LoT
# --------------
SYSTEM = La3Ni2O7                       # Title of the SYSTEM
GGA = PE                                # Generalized Gradient Approximation functional

# Electronic Structure
# --------------------
ISMEAR = 0                              # Gaussian smearing
SIGMA = 0.04                            # Width of the smearing in eV
ISPIN = 1                               # Non-Spin polarized DFT
EDIFF = 1E-08                           # SCF energy convergence threshold (in eV)
ENCUT = 600.0                           # Plane-wave energy cutoff (eV)
NBANDS = 224                            # Total number of KS orbitals

NCSHMEM = 1                             # switch off shared memory for chi
ALGO = CRPA                             # Switch on CRPA
PRECFOCK = Fast                         # fast mode for FFTs
NTARGET_STATES = 1 2 3 4 5 6 7 8 
