La3Ni2O7_Amam                           
   1.0000000000000000     
    10.3793677599473000   -0.0473270288357241    0.0000000000000000
    -8.9343111442588832    5.2831429401332226   -0.0000000000000000
    -0.0000000000000000   -0.0000000000000000    5.3616850101273412
   La   Ni   O 
     6     4    14
Direct
  0.0625194413192647  0.4202301302372435  0.2500000000000000
  0.9374805586807352  0.5797698697627565  0.7500000000000000
  0.4202301302372364  0.0625194413192576  0.2500000000000000
  0.5797698697627565  0.9374805586807423  0.7500000000000000
  0.2510752887533034  0.2510752887533034  0.2500000000000000
  0.7489247112466966  0.7489247112466966  0.7500000000000000
  0.8453813917473451  0.6520429138587709  0.2500000000000000
  0.1546186082526550  0.3479570861412291  0.7500000000000000
  0.6520429138587709  0.8453813917473451  0.2500000000000000
  0.3479570861412291  0.1546186082526550  0.7500000000000000
  0.0893476506749807  0.9106523493250335 -0.0000000000000000
  0.9106523493250193  0.0893476506749665  0.5000000000000000
  0.9106523493250193  0.0893476506749665  0.0000000000000000
  0.0893476506749807  0.9106523493250335  0.5000000000000000
  0.6030321170582602  0.3969678829417186  0.5000000000000000
  0.3969678829417470  0.6030321170582815  0.0000000000000000
  0.3969678829417470  0.6030321170582815  0.5000000000000000
  0.6030321170582602  0.3969678829417186 -0.0000000000000000
  0.9867133575465997  0.5783255681717623  0.2500000000000000
  0.0132866424534003  0.4216744318282377  0.7500000000000000
  0.2899789950109868  0.2899789950109939  0.7500000000000000
  0.7100210049890131  0.7100210049890060  0.2500000000000000
  0.4216744318282377  0.0132866424533932  0.7500000000000000
  0.5783255681717623  0.9867133575466068  0.2500000000000000
