La3Ni2O7_2GPa
   1.0000000000000000
     1.9186572361896801   -1.9186572361896801   10.0305301194252170
     1.9186572361896801   -1.9186572361896801  -10.0305301194252170
     3.7898845039802329    3.7898845039802316    0.0000000000000000
La              Ni              O
     6     4    14
Direct
  0.0624927629826966  0.4203003909831171  0.2500000000000000
  0.9375072370173037  0.5796996090168830  0.7500000000000000
  0.4203003909831100  0.0624927629826824  0.2500000000000000
  0.5796996090168830  0.9375072370173179  0.7500000000000000
  0.2508179863256539  0.2508179863256468  0.2500000000000000
  0.7491820136743458  0.7491820136743529  0.7500000000000000
  0.8452248860464431  0.6520413307753415  0.2500000000000000
  0.1547751139535568  0.3479586692246585  0.7500000000000000
  0.6520413307753415  0.8452248860464431  0.2500000000000000
  0.3479586692246585  0.1547751139535568  0.7500000000000000
  0.0893598285837099  0.9106401714163684  0.0000000000000000
  0.9106401714162903  0.0893598285836317  0.5000000000000000
  0.9106401714162903  0.0893598285836317  0.0000000000000000
  0.0893598285837099  0.9106401714163684  0.5000000000000000
  0.6029687435161800  0.3970312564837346  0.5000000000000000
  0.3970312564838270  0.6029687435162653  0.0000000000000000
  0.3970312564838270  0.6029687435162653  0.5000000000000000
  0.6029687435161800  0.3970312564837346  0.0000000000000000
  0.9869033513357666  0.5782737038610386  0.2500000000000000
  0.0130966486642332  0.4217262961389620  0.7500000000000000
  0.2892988616232995  0.2892988616233280  0.7500000000000000
  0.7107011383767006  0.7107011383766721  0.2500000000000000
  0.4217262961389833  0.0130966486641905  0.7500000000000000
  0.5782737038610173  0.9869033513358092  0.2500000000000000
