La3Ni2O7 at 29.5 GPa (start)
-550.0
  5.289   0.000   0.000
  0.000   5.218   0.000
  0.000   0.000  19.734
La Ni O
12 8 28
Direct
0.5102822675099250  0.0189464623687729  0.0175726875672713
0.0013033260124635  0.5126355065876551  0.0027328532461486
0.5124923292779666  0.0100173003434951  0.1966989502477071
0.0083980154360521  0.5012259815358375  0.1930114831967863
0.0026801292505126  0.0132767492232650  0.3325873579924096
0.5183714471711678  0.5190911530174698  0.3324650983317896
0.0030631984231444  0.0111990014029494  0.5065680592504450
0.5069933140054746  0.5174340517836594  0.5163957493795465
0.0145973678002177  0.0119243749094719  0.6845385542926701
0.5125809797440128  0.5064706643672553  0.6846728432466314
0.5198567016556198  0.0106137420308051  0.8292530151734001
0.0015546408305611  0.5076871154433592  0.8324712997651975
0.0183394002697623  0.0118056555915481  0.1134010009164104
0.5026784455297439  0.5155176223959239  0.1096730391372270
0.5059757221444092  0.0159647087491687  0.4094789107798968
0.0178736323861910  0.5099378518447431  0.4168645679659820
0.5136347081792004  0.0153741842637297  0.6110504776302251
0.0028308448659371  0.5024555704670581  0.6110482158840665
0.0057014527243819  0.0078609101347705  0.9218594969885272
0.5127852701142410  0.5060684402473279  0.9238031669003242
0.0184935240327995  0.0127716119471883  0.0099746552638870
0.5104233834488902  0.5022791193419931  0.0092521612943496
0.2647823272842697  0.2545111913562049  0.0983488639431290
0.7538134019950781  0.2654738354887735  0.1042778877009650
0.2558683909105404  0.7649392138885612  0.1039005211659900
0.7692775698639703  0.7674038433148055  0.1022394589336110
0.0048123554073017  0.0085947413267233  0.2073628891419647
0.5106508167114269  0.5013983999295800  0.2145324770824538
0.5085939919417762  0.0195490097071320  0.3003717738386494
0.0091939604195368  0.5001680489332045  0.3074219704215208
0.2660739999165475  0.2646779510016355  0.4170041971148642
0.7621376092988431  0.2542589790869284  0.4224938934337862
0.2596033047531524  0.7509121097762127  0.4167187823225095
0.7699831784376673  0.7649182940357842  0.4212827927692059
0.5124547137731921  0.0007597349402842  0.5069576506819562
0.0044967595202547  0.5028307639767557  0.5050579508140871
0.2503462569146591  0.2576319088932122  0.6130918473401981
0.7519155389498077  0.2512238736427874  0.5998344935875067
0.2543043987333459  0.7599889530336669  0.6026770279284009
0.7619147163778551  0.7515434108123296  0.6107810565081759
0.5082591967922536  0.0101622120154551  0.7215774495415671
0.0111846191373564  0.5165310255797662  0.7149996244290918
0.0017423851312957  0.0190451648604451  0.8038114402165559
0.5030811756044297  0.5174442726246133  0.8065617411935051
0.2539701360244890  0.2554395201587588  0.9075246991412853
0.7636463837627805  0.2676816838287490  0.9220356681549808
0.2645767164851499  0.7572937981933880  0.9089330229558711
0.7674011516793329  0.7558163835123809  0.9174364726464653
