La3Ni2O7 at 29.5 GPa CONV               
1.0000000000000000     
5.4791158521181647    0.0093010361338029   -0.0104244634101431
0.0000000000006444    5.3725413517024299    0.0064136925263482
-0.0000000000015465    0.0000000000000830   20.1380622416409203
La   Ni   O 
12     8    28
Direct
0.5291478764272428 -0.0068845329071403  0.0110083497521373
0.0274884755330448  0.4918566003313705  0.0117548827375796
0.5186833731146555 -0.0095283113149196  0.1907944919701544
0.0385899388389992  0.4935298257974849  0.1909337485232400
0.0156296340768492 -0.0083122877263371  0.3325896568106129
0.5370383051765391  0.4930389042657138  0.3328663157069695
0.0211841810475282 -0.0059580672467838  0.5124567282253659
0.5260275602859940  0.4907175827967142  0.5121391524500394
0.0215516030535574 -0.0014116261287381  0.6911949970379951
0.5415399949300933  0.4963387955886059  0.6902856967220778
0.5197777540022870 -0.0053262344480773  0.8313722395399061
0.0410703421721925  0.4939042826384901  0.8325027624196019
0.0231374212134518 -0.0047476938227689  0.1069823591375779
0.5309160268394429  0.4916896002723628  0.1073962994930981
0.5206266565232370 -0.0065598529024672  0.4160224023044456
0.0295415295454002  0.4931442371633101  0.4161743804443759
0.5255822016197589 -0.0075293377075211  0.6073836389669984
0.0298860829478417  0.4942253589204446  0.6067971581296270
0.0254094565331521 -0.0066793250825758  0.9145139086030650
0.5317206600935650  0.4919504272715243  0.9151838725137590
0.9775580159522215 -0.0104647627995751  0.0103848210614639
0.5757392339063930  0.4926176576931869  0.0104882521435476
0.2789959467447940  0.2438128425460648  0.0983273085343194
0.7819186846654064  0.2466906885269686  0.1160779295271512
0.2721943352697400  0.7415763237563042  0.0997182782501610
0.7762504542495945  0.7440942599072928  0.1160563800654362
0.0678167426806707 -0.0064446047949555  0.2164204901850561
0.4875286849272327  0.4883496504884449  0.2161482954080558
0.5676194037948430 -0.0084289164568393  0.3077548567165289
0.9804712100472199  0.4932907342292036  0.3062831121826246
0.2747144334507859  0.2448797308259169  0.4059044041554682
0.7741695181567676  0.2440604802872156  0.4240403342838969
0.2747660691503760  0.7434839686384684  0.4051815931242657
0.7730487807050811  0.7439092956050580  0.4250927944119422
0.4786686277643070 -0.0030570012636085  0.5122631273392690
0.0759106827911500  0.4945082526080402  0.5116627207459439
0.2803631079115914  0.2481562870807154  0.6160330493773064
0.7793375975239170  0.2423601946826049  0.5981646861117477
0.2747502260208418  0.7451228142377216  0.6176131409107090
0.7737477030353372  0.7407044777499284  0.6004503357914170
0.5703201329936284 -0.0092114963056031  0.7154853552422928
0.9872651590180685  0.4890775296193224  0.7154977523304327
0.0708089687198383 -0.0033320431197765  0.8078217073970895
0.4871419079188421  0.4892427669464995  0.8062605772954108
0.2773527414024158  0.2457969341994109  0.9218373395291112
0.7825202630215990  0.2463370564048472  0.9070994796934085
0.2782228061914535  0.7447419392733623  0.9229395018462430
0.7774568718996019  0.7432614978205198  0.9054546898577966
Lattice velocities and vectors
        1
-0.38701302E-04  0.57409945E-05  0.78083328E-05
0.40998924E-04  0.10570106E-05  0.39038476E-04
-0.10330644E-04 -0.45890088E-04 -0.69326241E-04
0.54790771E+01  0.93485689E-02 -0.10419487E-01
0.64456611E-12  0.53725424E+01  0.64404882E-02
-0.15464538E-11  0.82534945E-13  0.20137993E+02

-0.83219087E-04  0.19800736E-03 -0.55677925E-04
-0.19976597E-03 -0.13090206E-04 -0.24786798E-03
-0.90938482E-04 -0.14195948E-04 -0.17223310E-03
0.18350057E-03  0.63776154E-05  0.35980628E-03
-0.11758901E-03 -0.13230595E-03 -0.23854422E-03
0.15723301E-03 -0.13507725E-03  0.30775296E-03
0.47193865E-04 -0.24036056E-03 -0.39358011E-03
0.28407316E-03  0.52489511E-03 -0.26227446E-03
-0.32062757E-03 -0.19153098E-04 -0.62556254E-04
-0.27845313E-03  0.48170185E-03 -0.64429614E-03
0.27176695E-04 -0.41527817E-04 -0.54266379E-04
0.18255917E-03 -0.47498603E-04  0.24329023E-03
-0.15685427E-03 -0.57678135E-03  0.20409995E-03
-0.16822752E-03 -0.13966708E-03 -0.13476690E-04
0.14774583E-03  0.28260093E-03  0.16751975E-03
-0.20410728E-03 -0.12749291E-03 -0.37994851E-03
-0.44270350E-03  0.51528578E-04 -0.12234956E-03
-0.13707562E-03 -0.30922704E-03 -0.39284507E-03
-0.70033576E-03 -0.24920304E-03  0.31544140E-03
-0.84175957E-04 -0.60323272E-03  0.19514436E-03
0.81628748E-03  0.57358445E-03  0.27747382E-03
0.19015281E-03  0.15053672E-02 -0.16833783E-02
-0.32411148E-03 -0.28093209E-03  0.13597480E-02
-0.40657888E-03 -0.98453626E-03 -0.52695467E-03
0.17478548E-03 -0.16847977E-02 -0.82154448E-03
0.47612985E-03 -0.46078450E-04  0.34521650E-03
0.30900230E-03  0.30094819E-03 -0.15414327E-02
-0.87285519E-03 -0.10395523E-03  0.97313782E-03
-0.42050737E-03 -0.48129731E-03  0.45773310E-04
0.39667605E-03 -0.58470486E-03  0.43591950E-03
0.14995051E-03  0.17538569E-02  0.23345893E-03
-0.50827757E-03 -0.49998478E-03  0.72651221E-03
0.10989722E-02 -0.74483395E-03 -0.35797030E-03
-0.68004605E-03  0.89346536E-03 -0.65789797E-04
0.52237138E-03 -0.96257674E-03  0.83827301E-03
-0.47801904E-03 -0.53698621E-03  0.13996079E-02
0.16693894E-03 -0.22146967E-03  0.21132297E-02
0.30892665E-03  0.89920645E-03  0.48829880E-03
-0.69794252E-04 -0.34293437E-03 -0.14926910E-02
0.96256463E-03 -0.52228501E-03  0.56287058E-03
0.16045228E-04  0.15538538E-02  0.29898134E-03
0.13989788E-02 -0.18575601E-03  0.17468304E-05
0.33052893E-03 -0.32388468E-03 -0.16560221E-03
0.75979770E-03  0.45040696E-03 -0.13478246E-03
0.31485572E-03 -0.20780591E-03 -0.11580913E-02
-0.55746670E-03  0.14178083E-02  0.21656154E-03
0.13945021E-02  0.41773546E-04  0.10275598E-02
0.47014757E-03 -0.88445247E-03  0.56663812E-03

        1
1.0000000000000000     
0.10000000E+01  0.00000000E+00  0.00000000E+00  0.00000000E+00
0.52913269E+00  0.99315235E+00  0.11005565E-01
0.27452016E-01  0.49185423E+00  0.11742556E-01
0.51866678E+00  0.99046908E+00  0.19078593E+00
0.38623430E-01  0.49353095E+00  0.19095163E+00
0.15608173E-01  0.99166312E+00  0.33257781E+00
0.53706700E+00  0.49301371E+00  0.33288162E+00
0.21192795E-01  0.99399718E+00  0.51243720E+00
0.52607941E+00  0.49081519E+00  0.51212612E+00
0.21493085E-01  0.99858491E+00  0.69119186E+00
0.54148917E+00  0.49642854E+00  0.69025365E+00
0.51978271E+00  0.99466603E+00  0.83136955E+00
0.41103662E-01  0.49389538E+00  0.83251486E+00
0.23108793E-01  0.99514500E+00  0.10699251E+00
0.53088532E+00  0.49166366E+00  0.10739562E+00
0.52065362E+00  0.99349270E+00  0.41603072E+00
0.29504277E-01  0.49312057E+00  0.41615550E+00
0.52550140E+00  0.99248039E+00  0.60737752E+00
0.29861065E-01  0.49416785E+00  0.60677766E+00
0.25281637E-01  0.99327451E+00  0.91452952E+00
0.53170530E+00  0.49183817E+00  0.91519359E+00
0.97770700E+00  0.98964174E+00  0.10398643E-01
0.57577394E+00  0.49289779E+00  0.10404588E-01
0.27893679E+00  0.24376066E+00  0.98394816E-01
0.78184448E+00  0.24650756E+00  0.11605178E+00
0.27222624E+00  0.74126267E+00  0.99677599E-01
0.77633735E+00  0.74408553E+00  0.11607357E+00
0.67873139E-01  0.99361131E+00  0.21634396E+00
0.48736938E+00  0.48833058E+00  0.21619654E+00
0.56754266E+00  0.99148163E+00  0.30775712E+00
0.98054361E+00  0.49318178E+00  0.30630483E+00
0.27474180E+00  0.24520613E+00  0.40591591E+00
0.77407675E+00  0.24396758E+00  0.42407639E+00
0.27496665E+00  0.74334498E+00  0.40516397E+00
0.77292466E+00  0.74407581E+00  0.42508941E+00
0.47876397E+00  0.99676367E+00  0.51230486E+00
0.75823438E-01  0.49440845E+00  0.51173221E+00
0.28039358E+00  0.24811501E+00  0.61613802E+00
0.77939398E+00  0.24252747E+00  0.59818891E+00
0.27473749E+00  0.74505901E+00  0.61753903E+00
0.77392338E+00  0.74060696E+00  0.60047841E+00
0.57032306E+00  0.99107772E+00  0.71550011E+00
0.98752049E+00  0.48904251E+00  0.71549798E+00
0.70869294E-01  0.99660757E+00  0.80781353E+00
0.48728058E+00  0.48932636E+00  0.80625393E+00
0.27741021E+00  0.24575815E+00  0.92177987E+00
0.78241852E+00  0.24660113E+00  0.90711010E+00
0.27847732E+00  0.74474927E+00  0.92299066E+00
0.77754268E+00  0.74309672E+00  0.90548292E+00
0.00000000E+00  0.00000000E+00  0.00000000E+00
0.00000000E+00  0.00000000E+00  0.00000000E+00
0.00000000E+00  0.00000000E+00  0.00000000E+00
0.00000000E+00  0.00000000E+00  0.00000000E+00
0.00000000E+00  0.00000000E+00  0.00000000E+00
0.00000000E+00  0.00000000E+00  0.00000000E+00
0.00000000E+00  0.00000000E+00  0.00000000E+00
0.00000000E+00  0.00000000E+00  0.00000000E+00
0.00000000E+00  0.00000000E+00  0.00000000E+00
0.00000000E+00  0.00000000E+00  0.00000000E+00
0.00000000E+00  0.00000000E+00  0.00000000E+00
0.00000000E+00  0.00000000E+00  0.00000000E+00
0.00000000E+00  0.00000000E+00  0.00000000E+00
0.00000000E+00  0.00000000E+00  0.00000000E+00
0.00000000E+00  0.00000000E+00  0.00000000E+00
0.00000000E+00  0.00000000E+00  0.00000000E+00
0.00000000E+00  0.00000000E+00  0.00000000E+00
0.00000000E+00  0.00000000E+00  0.00000000E+00
0.00000000E+00  0.00000000E+00  0.00000000E+00
0.00000000E+00  0.00000000E+00  0.00000000E+00
0.00000000E+00  0.00000000E+00  0.00000000E+00
0.00000000E+00  0.00000000E+00  0.00000000E+00
0.00000000E+00  0.00000000E+00  0.00000000E+00
0.00000000E+00  0.00000000E+00  0.00000000E+00
0.00000000E+00  0.00000000E+00  0.00000000E+00
0.00000000E+00  0.00000000E+00  0.00000000E+00
0.00000000E+00  0.00000000E+00  0.00000000E+00
0.00000000E+00  0.00000000E+00  0.00000000E+00
0.00000000E+00  0.00000000E+00  0.00000000E+00
0.00000000E+00  0.00000000E+00  0.00000000E+00
0.00000000E+00  0.00000000E+00  0.00000000E+00
0.00000000E+00  0.00000000E+00  0.00000000E+00
0.00000000E+00  0.00000000E+00  0.00000000E+00
0.00000000E+00  0.00000000E+00  0.00000000E+00
0.00000000E+00  0.00000000E+00  0.00000000E+00
0.00000000E+00  0.00000000E+00  0.00000000E+00
0.00000000E+00  0.00000000E+00  0.00000000E+00
0.00000000E+00  0.00000000E+00  0.00000000E+00
0.00000000E+00  0.00000000E+00  0.00000000E+00
0.00000000E+00  0.00000000E+00  0.00000000E+00
0.00000000E+00  0.00000000E+00  0.00000000E+00
0.00000000E+00  0.00000000E+00  0.00000000E+00
0.00000000E+00  0.00000000E+00  0.00000000E+00
0.00000000E+00  0.00000000E+00  0.00000000E+00
0.00000000E+00  0.00000000E+00  0.00000000E+00
0.00000000E+00  0.00000000E+00  0.00000000E+00
0.00000000E+00  0.00000000E+00  0.00000000E+00
0.00000000E+00  0.00000000E+00  0.00000000E+00
0.00000000E+00  0.00000000E+00  0.00000000E+00
0.00000000E+00  0.00000000E+00  0.00000000E+00
0.00000000E+00  0.00000000E+00  0.00000000E+00
0.00000000E+00  0.00000000E+00  0.00000000E+00
0.00000000E+00  0.00000000E+00  0.00000000E+00
0.00000000E+00  0.00000000E+00  0.00000000E+00
0.00000000E+00  0.00000000E+00  0.00000000E+00
0.00000000E+00  0.00000000E+00  0.00000000E+00
0.00000000E+00  0.00000000E+00  0.00000000E+00
0.00000000E+00  0.00000000E+00  0.00000000E+00
0.00000000E+00  0.00000000E+00  0.00000000E+00
0.00000000E+00  0.00000000E+00  0.00000000E+00
0.00000000E+00  0.00000000E+00  0.00000000E+00
0.00000000E+00  0.00000000E+00  0.00000000E+00
0.00000000E+00  0.00000000E+00  0.00000000E+00
0.00000000E+00  0.00000000E+00  0.00000000E+00
0.00000000E+00  0.00000000E+00  0.00000000E+00
0.00000000E+00  0.00000000E+00  0.00000000E+00
0.00000000E+00  0.00000000E+00  0.00000000E+00
0.00000000E+00  0.00000000E+00  0.00000000E+00
0.00000000E+00  0.00000000E+00  0.00000000E+00
0.00000000E+00  0.00000000E+00  0.00000000E+00
0.00000000E+00  0.00000000E+00  0.00000000E+00
0.00000000E+00  0.00000000E+00  0.00000000E+00
0.00000000E+00  0.00000000E+00  0.00000000E+00
0.00000000E+00  0.00000000E+00  0.00000000E+00
0.00000000E+00  0.00000000E+00  0.00000000E+00
0.00000000E+00  0.00000000E+00  0.00000000E+00
0.00000000E+00  0.00000000E+00  0.00000000E+00
0.00000000E+00  0.00000000E+00  0.00000000E+00
0.00000000E+00  0.00000000E+00  0.00000000E+00
0.00000000E+00  0.00000000E+00  0.00000000E+00
0.00000000E+00  0.00000000E+00  0.00000000E+00
0.00000000E+00  0.00000000E+00  0.00000000E+00
0.00000000E+00  0.00000000E+00  0.00000000E+00
0.00000000E+00  0.00000000E+00  0.00000000E+00
0.00000000E+00  0.00000000E+00  0.00000000E+00
0.00000000E+00  0.00000000E+00  0.00000000E+00
0.00000000E+00  0.00000000E+00  0.00000000E+00
0.00000000E+00  0.00000000E+00  0.00000000E+00
0.00000000E+00  0.00000000E+00  0.00000000E+00
0.00000000E+00  0.00000000E+00  0.00000000E+00
0.00000000E+00  0.00000000E+00  0.00000000E+00
0.00000000E+00  0.00000000E+00  0.00000000E+00
0.00000000E+00  0.00000000E+00  0.00000000E+00
0.00000000E+00  0.00000000E+00  0.00000000E+00
0.00000000E+00  0.00000000E+00  0.00000000E+00
0.00000000E+00  0.00000000E+00  0.00000000E+00
