
SYSTEM = La3Ni2O7                #  Structural formula
ISMEAR = 0                       #  Gaussian smearing
SIGMA  = 0.04                    #  Smearing width (eV)
EDIFF  = 1E-08                   #  SCF convergence
ENCUT  = 600.0                   #  Plane-wave cutoff (eV)
NBANDS = 336                     #  Number of bands

ALGO = NONE                      #  No electronic update
NELM = 1                         #  Single electronic step
LWAVE = .FALSE.                  #  Do not write WAVECAR
LCHARG = .FALSE.                 #  Do not write CHGCAR
LWANNIER90_RUN = .TRUE.          #  Run Wannier90
LWRITE_WANPROJ = .TRUE.          #  Write Wannier projections
LWRITE_UNK = .TRUE.              #  Write cell-periodic Bloch part
NCSHMEM = 1                      #  Disable shared memory
PRECFOCK = Fast                  #  Fast FFT mode
NUM_WANN = 8                     #  Number of Wannier functions

LDAU      = .TRUE.               #  Enable DFT+U
LDAUTYPE  = 2                    #  Dudarev scheme
LDAUL     = 3 -1 -1              #  U on Ni d only
LDAUU     = 18.00 0.00 0.00      #  U values (eV)
LDAUJ     = 0.00 0.00 0.00       #  J values (eV)
LMAXMIX   = 6                    #  Charge mixing limit
LDAUPRINT = 1                    #  Minimal DFT+U output


WANNIER90_WIN = "

begin projections
Ni: dx2-y2
Ni: dz2
end projections

dis_win_min = 8.1
dis_win_max = 12.0

dis_froz_min = 9.0
dis_froz_max = 10.6

guiding_centres = true

wannier_plot      =  true
wannier_plot_supercell = 5
bands_plot      =  true


begin kpoint_path
  G  0.0 0.0 0.0  S  0.5 0.0 0.0
  S  0.5 0.0 0.0  R  0.5 0.0 0.5
  R  0.5 0.0 0.5  Z  0.0 0.0 0.5
  Z  0.0 0.0 0.5  T  0.5 0.5 0.5
  T  0.5 0.5 0.5  Y  0.5 0.5 0.0
  Y  0.5 0.5 0.0  G 0.0 0.0 0.0
end kpoint_path


