SYSTEM = La3Ni2O7                       # Structural formula of the system
GGA = PE                                # Generalized Gradient Approximation functional (PBE)

ISMEAR = 0                              # Gaussian smearing
SIGMA = 0.04                            # Width of the smearing in eV
ISPIN = 1                               # Non-Spin polarized DFT
EDIFF = 1E-08                           # SCF energy convergence threshold (in eV)
ENCUT = 600.0                           # Plane-wave energy cutoff (eV)
NBANDS = 336                            # Total number of KS orbitals

ALGO = NONE                             # no electronic changes required
NELM = 1                                # one electronic step suffices, since WAVECAR from previous step is present
LWAVE = .FALSE.                         # do not overwrite WAVECAR
LCHARG = .FALSE.                        # do not overwrite CHGCAR
LWANNIER90_RUN = .TRUE.                 # run wannier90 in library mode
LWRITE_WANPROJ = .TRUE.                 # write wannier projection file
LWRITE_UNK = .TRUE.                     # cell-periodic part of the relevant Bloch functions is written
NCSHMEM = 1                             # switch off shared memory for chi
PRECFOCK = Fast                         # fast mode for FFTs
NUM_WANN = 8

WANNIER90_WIN = "

begin projections
f = 0.8453734066217411,  0.6520406206651932,  0.2500000000000000: dxy: z = 2.1258142293658500, -0.3952058530484597, 0.0000000000000000: x = 0, 0, 1
f = 0.8453734066217411,  0.6520406206651932,  0.2500000000000000: dz2: z = 2.1258142293658500, -0.3952058530484597, 0.0000000000000000: x = 0, 0, 1
f = 0.1546265933782588,  0.3479593793348072,  0.7500000000000000: dxy: z = -2.1258142293658424, 0.3952058530484552, 0.0000000000000000: x = 0, 0, 1
f = 0.1546265933782588,  0.3479593793348072,  0.7500000000000000: dz2: z = -2.1258142293658424, 0.3952058530484552, 0.0000000000000000: x = 0, 0, 1
f = 0.6520406206652096,  0.8453734066217659,  0.2500000000000000: dxy: z = -2.0275865975807950, 0.7511101076580156, 0.0000000000000000: x = 0, 0, 1
f = 0.6520406206652096,  0.8453734066217659,  0.2500000000000000: dz2: z = -2.0275865975807950, 0.7511101076580156, 0.0000000000000000: x = 0, 0, 1
f = 0.3479593793347904,  0.1546265933782340,  0.7500000000000000: dxy: z = 2.0275865975807963, -0.7511101076580169, 0.0000000000000000: x = 0, 0, 1
f = 0.3479593793347904,  0.1546265933782340,  0.7500000000000000: dz2: z = 2.0275865975807963, -0.7511101076580169, 0.0000000000000000: x = 0, 0, 1
end projections

dis_win_min = 7.8
dis_win_max = 11.9

dis_froz_min = 8.7
dis_froz_max = 10.4

guiding_centres = true

wannier_plot      =  true
wannier_plot_supercell = 5
bands_plot      =  true


begin kpoint_path
  G  0.0 0.0 0.0  S  0.5 0.0 0.0
  S  0.5 0.0 0.0  R  0.5 0.0 0.5
  R  0.5 0.0 0.5  Z  0.0 0.0 0.5
  Z  0.0 0.0 0.5  T  0.5 0.5 0.5
  T  0.5 0.5 0.5  Y  0.5 0.5 0.0
  Y  0.5 0.5 0.0  G 0.0 0.0 0.0
end kpoint_path


bands_num_points 50
