La3Ni2O7_2GPa
   1.0000000000000000
    10.3792840629271836   -0.0469169360202746    0.0000000000000000
    -8.9340289513914470    5.2834520519187178    0.0000000000000000
    -0.0000000000000000    0.0000000000000000    5.3617436176282798
   La   Ni   O
     6     4    14
Direct
  0.0624786440256447  0.4201941113327186  0.2500000000000000
  0.9375213559743553  0.5798058886672814  0.7500000000000000
  0.4201941113327120  0.0624786440256576  0.2500000000000000
  0.5798058886672811  0.9375213559743423  0.7500000000000000
  0.2510926000965916  0.2510926000965873  0.2500000000000000
  0.7489073999034082  0.7489073999034123  0.7500000000000000
  0.8453734066217411  0.6520406206651932  0.2500000000000000
  0.1546265933782588  0.3479593793348072  0.7500000000000000
  0.6520406206652096  0.8453734066217659  0.2500000000000000
  0.3479593793347904  0.1546265933782340  0.7500000000000000
  0.0893255402538328  0.9106744597461555 -0.0000000000000000
  0.9106744597461671  0.0893255402538444  0.5000000000000000
  0.9106744597461671  0.0893255402538444  0.0000000000000000
  0.0893255402538328  0.9106744597461555  0.5000000000000000
  0.6030582232434164  0.3969417767566194  0.5000000000000000
  0.3969417767565908  0.6030582232433809 -0.0000000000000000
  0.3969417767565908  0.6030582232433809  0.5000000000000000
  0.6030582232434164  0.3969417767566194  0.0000000000000000
  0.9868830933063751  0.5784965346559491  0.2500000000000000
  0.0131169066936248  0.4215034653440504  0.7500000000000000
  0.2901395521922972  0.2901395521922778  0.7500000000000000
  0.7098604478077032  0.7098604478077223  0.2500000000000000
  0.4215034653440420  0.0131169066936479  0.7500000000000000
  0.5784965346559580  0.9868830933063518  0.2500000000000000
