SYSTEM = La3Ni2O7                       # Structural formula of the system
GGA = PE                                # Generalized Gradient Approximation functional (PBE)

ISMEAR = 0                              # Gaussian smearing
SIGMA = 0.04                            # Width of the smearing in eV
ISPIN = 1                               # Non-Spin polarized DFT
EDIFF = 1E-08                           # SCF energy convergence threshold (in eV)
ENCUT = 600.0                           # Plane-wave energy cutoff (eV)
NBANDS = 224                            # Total number of KS orbitals

ALGO = NONE                             # no electronic changes required
NELM = 1                                # one electronic step suffices, since WAVECAR from previous step is present
LWAVE = .FALSE.                         # do not overwrite WAVECAR
LCHARG = .FALSE.                        # do not overwrite CHGCAR
LWANNIER90_RUN = .TRUE.                 # run wannier90 in library mode
LWRITE_WANPROJ = .TRUE.                 # write wannier projection file
LWRITE_UNK = .TRUE.                     # cell-periodic part of the relevant Bloch functions is written
NCSHMEM = 1                             # switch off shared memory for chi
PRECFOCK = Fast                         # fast mode for FFTs
NUM_WANN = 8

WANNIER90_WIN = "

begin projections
f = 0.8453813917473451,  0.6520429138587709,  0.2500000000000000: dxy: z = 10.3793677599473000, -0.0473270288357241, 0.0000000000000000: x = 0, 0, 1
f = 0.8453813917473451,  0.6520429138587709,  0.2500000000000000: dz2: z = 10.3793677599473000, -0.0473270288357241, 0.0000000000000000: x = 0, 0, 1
f = 0.1546186082526550,  0.3479570861412291,  0.7500000000000000: dxy: z = -8.9343111442588832, 5.2831429401332226, -0.0000000000000000: x = 0, 0, 1
f = 0.1546186082526550,  0.3479570861412291,  0.7500000000000000: dz2: z = -8.9343111442588832, 5.2831429401332226, -0.0000000000000000: x = 0, 0, 1
f = 0.6520429138587709,  0.8453813917473451,  0.2500000000000000: dxy: z = -8.9343111442588832, 5.2831429401332226, -0.0000000000000000: x = 0, 0, 1
f = 0.6520429138587709,  0.8453813917473451,  0.2500000000000000: dz2: z = -8.9343111442588832, 5.2831429401332226, -0.0000000000000000: x = 0, 0, 1
f = 0.3479570861412291,  0.1546186082526550,  0.7500000000000000: dxy: z = 10.3793677599473000, -0.0473270288357241, 0.0000000000000000: x = 0, 0, 1
f = 0.3479570861412291,  0.1546186082526550,  0.7500000000000000: dz2: z = 10.3793677599473000, -0.0473270288357241, 0.0000000000000000: x = 0, 0, 1
end projections

dis_win_min = 7.7
dis_win_max = 11.9

dis_froz_min = 8.7
dis_froz_max = 10.45

guiding_centres = true

wannier_plot      =  true
wannier_plot_supercell = 5
bands_plot      =  true

begin kpoint_path
  G  0.0 0.0 0.0  X  0.5 0.5 0.5
  X  0.5 0.5 0.5  M  0.5 0.0 0.5
  M  0.5 0.0 0.5  G  0.0 0.0 0.0
end kpoint_path

bands_num_points 50
"
